n = 27; % Número total de celdas blancas
num_hints = 13; % Cantidad de pistas

hints = [23, 30, 27, 12, 16, 16, 24, 17, 29, 15, 35, 12, 7];

groups = [{1, 2}, {3, 4, 5}, {6, 7}, {8, 9}, {10, 11}, 
          {12, 13}, {14, 15}, {16, 17}, {18, 19}, {20, 21},
          {22, 23, 24, 25, 26}, {27}, {28}];
